(set-info :smt-lib-version 2.6)
(set-logic AUFBVFPDTNIRA)
(set-info :source |
Generated by: AdaCore
Generated on: 2020-03-06
Generator: SPARK
Application: Program verification for Ada
Target solver: Z3
|)
(set-info :license "https://creativecommons.org/licenses/by/4.0/")
(set-info :category "industrial")
(set-info :status unknown)
;;; generated by SMT-LIB2 driver
;;; SMT-LIB2 driver: bit-vectors, common part
;;; SMT-LIB2: integer arithmetic
(declare-sort string 0)

(declare-datatypes () ((tuple0 (Tuple0))))
(declare-sort us_private 0)

(declare-fun private__bool_eq (us_private us_private) Bool)

(declare-const us_null_ext__ us_private)

(declare-sort us_type_of_heap 0)

(declare-datatypes ()
((us_type_of_heap__ref
 (us_type_of_heap__refqtmk (us_type_of_heap__content us_type_of_heap)))))
(declare-sort us_image 0)

(declare-datatypes () ((int__ref (int__refqtmk (int__content Int)))))
(declare-datatypes () ((bool__ref (bool__refqtmk (bool__content Bool)))))
(declare-datatypes ()
((us_fixed__ref (us_fixed__refqtmk (us_fixed__content Int)))))
(declare-datatypes () ((real__ref (real__refqtmk (real__content Real)))))
(declare-datatypes ()
((us_private__ref (us_private__refqtmk (us_private__content us_private)))))
(define-fun int__ref___projection ((a int__ref)) Int (int__content a))

(define-fun us_fixed__ref___projection ((a us_fixed__ref)) Int (us_fixed__content
                                                               a))

(define-fun bool__ref___projection ((a bool__ref)) Bool (bool__content a))

(define-fun real__ref___projection ((a real__ref)) Real (real__content a))

(define-fun us_private__ref___projection ((a us_private__ref)) us_private 
  (us_private__content a))

(declare-sort integer 0)

(declare-fun integerqtint (integer) Int)

;; integer'axiom
  (assert
  (forall ((i integer))
  (and (<= (- 2147483648) (integerqtint i)) (<= (integerqtint i) 2147483647))))

(define-fun in_range ((x Int)) Bool (and (<= (- 2147483648) x)
                                    (<= x 2147483647)))

(declare-fun attr__ATTRIBUTE_IMAGE (Int) us_image)

(declare-fun attr__ATTRIBUTE_VALUE__pre_check (us_image) Bool)

(declare-fun attr__ATTRIBUTE_VALUE (us_image) Int)

(declare-fun user_eq (integer integer) Bool)

(declare-const dummy integer)

(declare-datatypes ()
((integer__ref (integer__refqtmk (integer__content integer)))))
(define-fun integer__ref_integer__content__projection ((a integer__ref)) integer 
  (integer__content a))

(define-fun to_rep ((x integer)) Int (integerqtint x))

(declare-fun of_rep (Int) integer)

;; inversion_axiom
  (assert
  (forall ((x integer)) (! (= (of_rep (to_rep x)) x) :pattern ((to_rep x)) )))

;; range_axiom
  (assert
  (forall ((x integer)) (! (in_range (to_rep x)) :pattern ((to_rep x)) )))

;; coerce_axiom
  (assert
  (forall ((x Int))
  (! (=> (in_range x) (= (to_rep (of_rep x)) x)) :pattern ((to_rep
                                                           (of_rep x))) )))

(declare-datatypes ()
((us_split_fields
 (us_split_fieldsqtmk
 (rec__complex__t__r integer)(rec__complex__t__i integer)))))
(define-fun us_split_fields_rec__complex__t__r__projection ((a us_split_fields)) integer 
  (rec__complex__t__r a))

(define-fun us_split_fields_rec__complex__t__i__projection ((a us_split_fields)) integer 
  (rec__complex__t__i a))

(declare-datatypes ()
((us_split_fields__ref
 (us_split_fields__refqtmk (us_split_fields__content us_split_fields)))))
(define-fun us_split_fields__ref___split_fields__content__3__projection ((a us_split_fields__ref)) us_split_fields 
  (us_split_fields__content a))

(declare-datatypes ()
((us_rep (us_repqtmk (us_split_fields1 us_split_fields)))))
(define-fun us_rep___split_fields__3__projection ((a us_rep)) us_split_fields 
  (us_split_fields1 a))

(define-fun bool_eq ((a us_rep)
  (b us_rep)) Bool (ite (and
                        (= (to_rep (rec__complex__t__r (us_split_fields1 a))) 
                        (to_rep (rec__complex__t__r (us_split_fields1 b))))
                        (= (to_rep (rec__complex__t__i (us_split_fields1 a))) 
                        (to_rep (rec__complex__t__i (us_split_fields1 b)))))
                   true false))

(declare-const value__size Int)

(declare-const object__size Int)

(declare-const alignment Int)

;; value__size_axiom
  (assert (<= 0 value__size))

;; object__size_axiom
  (assert (<= 0 object__size))

;; alignment_axiom
  (assert (<= 0 alignment))

(declare-const complex__t__r__first__bit Int)

(declare-const complex__t__r__last__bit Int)

(declare-const complex__t__r__position Int)

;; complex__t__r__first__bit_axiom
  (assert (<= 0 complex__t__r__first__bit))

;; complex__t__r__last__bit_axiom
  (assert (< complex__t__r__first__bit complex__t__r__last__bit))

;; complex__t__r__position_axiom
  (assert (<= 0 complex__t__r__position))

(declare-const complex__t__i__first__bit Int)

(declare-const complex__t__i__last__bit Int)

(declare-const complex__t__i__position Int)

;; complex__t__i__first__bit_axiom
  (assert (<= 0 complex__t__i__first__bit))

;; complex__t__i__last__bit_axiom
  (assert (< complex__t__i__first__bit complex__t__i__last__bit))

;; complex__t__i__position_axiom
  (assert (<= 0 complex__t__i__position))

(declare-fun user_eq1 (us_rep us_rep) Bool)

(declare-const dummy1 us_rep)

(declare-datatypes () ((t__ref (t__refqtmk (t__content us_rep)))))
(define-fun t__ref_t__content__2__projection ((a t__ref)) us_rep (t__content
                                                                 a))

(declare-fun create (Int Int) us_rep)

(declare-fun create__function_guard (us_rep Int Int) Bool)

(define-fun dynamic_invariant ((temp___expr_18 Int) (temp___is_init_14 Bool)
  (temp___skip_constant_15 Bool) (temp___do_toplevel_16 Bool)
  (temp___do_typ_inv_17 Bool)) Bool (=>
                                    (or (= temp___is_init_14 true)
                                    (<= (- 2147483648) 2147483647)) (in_range
                                    temp___expr_18)))

;; create__post_axiom
  (assert true)

(declare-const foo us_rep)

(declare-const attr__ATTRIBUTE_ADDRESS Int)

(declare-const attr__ATTRIBUTE_ADDRESS1 Int)

(declare-const dst__split_fields us_split_fields)

;; Assume
  (assert true)

;; Assume
  (assert true)

(declare-const dst__split_fields1 us_split_fields)

;; H
  (assert (= dst__split_fields1 (us_split_fields1 foo)))

;; H
  (assert (create__function_guard (create 0 0) 0 0))

(assert
;; defqtvc
 ;; File "private_a.adb", line 29, characters 0-0
  (not (= (bool_eq (us_repqtmk dst__split_fields1) (create 0 0)) true)))
(check-sat)

(exit)
